objective value:                    0.791867928608647
x(0,5,1)                                            1 	(obj:0)
x(1,16,0)                                           1 	(obj:0)
x(2,14,1)                                           1 	(obj:0)
x(3,8,2)                                            1 	(obj:0)
x(4,0,1)                                            1 	(obj:0)
x(5,2,1)                                            1 	(obj:0)
x(5,13,2)                                           1 	(obj:0)
x(6,7,0)                                            1 	(obj:0)
x(7,1,0)                                            1 	(obj:0)
x(8,5,2)                                            1 	(obj:0)
x(13,3,2)                                           1 	(obj:0)
x(14,4,1)                                           1 	(obj:0)
x(16,6,0)                                           1 	(obj:0)
xc(0,1)                                             1 	(obj:0)
xc(1,10)                                            1 	(obj:0)
xc(2,0)                                             1 	(obj:0)
xc(4,14)                                            1 	(obj:0)
xc(5,18)                                            1 	(obj:0)
xc(7,9)                                             1 	(obj:0)
xc(8,3)                                             1 	(obj:0)
u(0,0)                              0.791867928608647 	(obj:0)
u(0,1)                             0.0317814597024899 	(obj:0)
u(0,2)                              0.791867928608647 	(obj:0)
u(1,0)                              0.607257798914447 	(obj:0)
u(2,1)                              0.554613675041367 	(obj:0)
u(3,0)                              0.791867928608647 	(obj:0)
u(5,1)                              0.413414648598469 	(obj:0)
u(5,2)                              0.498956642757207 	(obj:0)
u(6,2)                              0.791867928608647 	(obj:0)
u(7,0)                               0.14295950811964 	(obj:0)
u(7,1)                              0.791867928608647 	(obj:0)
u(7,2)                              0.791867928608647 	(obj:0)
u(8,2)                              0.203680783917287 	(obj:0)
u(9,0)                              0.791867928608647 	(obj:0)
u(9,2)                              0.791867928608647 	(obj:0)
u(10,0)                             0.791867928608647 	(obj:0)
u(10,1)                             0.791867928608647 	(obj:0)
u(10,2)                             0.791867928608647 	(obj:0)
u(11,0)                             0.791867928608647 	(obj:0)
u(11,1)                             0.791867928608647 	(obj:0)
u(11,2)                             0.791867928608647 	(obj:0)
u(12,0)                             0.791867928608647 	(obj:0)
u(12,1)                             0.791867928608647 	(obj:0)
u(12,2)                             0.791867928608647 	(obj:0)
u(13,0)                             0.791867928608647 	(obj:0)
u(13,1)                             0.791867928608647 	(obj:0)
u(13,2)                             0.791867928608647 	(obj:0)
u(14,0)                             0.791867928608647 	(obj:0)
u(14,1)                             0.791867928608647 	(obj:0)
u(14,2)                             0.791867928608647 	(obj:0)
u(15,0)                             0.791867928608647 	(obj:0)
u(15,1)                             0.791867928608647 	(obj:0)
u(15,2)                             0.791867928608647 	(obj:0)
u(16,0)                             0.791867928608647 	(obj:0)
u(16,1)                             0.791867928608647 	(obj:0)
u(16,2)                             0.791867928608647 	(obj:0)
u(17,0)                             0.791867928608647 	(obj:0)
u(17,1)                             0.791867928608647 	(obj:0)
u(17,2)                             0.791867928608647 	(obj:0)
u(18,0)                             0.791867928608647 	(obj:0)
u(18,1)                             0.791867928608647 	(obj:0)
u(18,2)                             0.791867928608647 	(obj:0)
u(19,0)                             0.791867928608647 	(obj:0)
u(19,1)                             0.791867928608647 	(obj:0)
u(19,2)                             0.791867928608647 	(obj:0)
f(0,1,0)                                            1 	(obj:0)
f(0,1,2)                                            1 	(obj:0)
f(0,1,3)                                            1 	(obj:0)
f(0,1,4)                                            1 	(obj:0)
f(0,5,0)                                            1 	(obj:0)
f(0,5,2)                                            1 	(obj:0)
f(1,16,0)                                           1 	(obj:0)
f(1,16,1)                                           1 	(obj:0)
f(1,16,2)                                           1 	(obj:0)
f(1,16,3)                                           1 	(obj:0)
f(1,16,4)                                           1 	(obj:0)
f(2,0,0)                                            1 	(obj:0)
f(2,0,2)                                            1 	(obj:0)
f(2,14,2)                                           1 	(obj:0)
f(2,14,3)                                           1 	(obj:0)
f(3,8,0)                                            1 	(obj:0)
f(3,8,1)                                            1 	(obj:0)
f(3,8,2)                                            1 	(obj:0)
f(3,8,3)                                            1 	(obj:0)
f(3,8,4)                                            1 	(obj:0)
f(4,0,2)                                            1 	(obj:0)
f(4,0,3)                                            1 	(obj:0)
f(4,0,4)                                            1 	(obj:0)
f(4,14,0)                                           1 	(obj:0)
f(5,2,0)                                            1 	(obj:0)
f(5,2,2)                                            1 	(obj:0)
f(5,2,3)                                            1 	(obj:0)
f(5,13,0)                                           1 	(obj:0)
f(5,13,1)                                           1 	(obj:0)
f(5,13,2)                                           1 	(obj:0)
f(6,7,0)                                            1 	(obj:0)
f(6,7,1)                                            1 	(obj:0)
f(6,7,2)                                            1 	(obj:0)
f(6,7,3)                                            1 	(obj:0)
f(6,7,4)                                            1 	(obj:0)
f(7,9,0)                                            1 	(obj:0)
f(7,9,1)                                            1 	(obj:0)
f(7,9,2)                                            1 	(obj:0)
f(7,9,3)                                            1 	(obj:0)
f(7,9,4)                                            1 	(obj:0)
f(8,3,4)                                            1 	(obj:0)
f(8,5,0)                                            1 	(obj:0)
f(8,5,1)                                            1 	(obj:0)
f(8,5,2)                                            1 	(obj:0)
f(8,5,3)                                            1 	(obj:0)
f(13,3,0)                                           1 	(obj:0)
f(13,3,1)                                           1 	(obj:0)
f(13,3,2)                                           1 	(obj:0)
f(14,4,0)                                           1 	(obj:0)
f(14,4,2)                                           1 	(obj:0)
f(14,4,3)                                           1 	(obj:0)
f(16,6,0)                                           1 	(obj:0)
f(16,6,1)                                           1 	(obj:0)
f(16,6,2)                                           1 	(obj:0)
f(16,6,3)                                           1 	(obj:0)
f(16,6,4)                                           1 	(obj:0)
z_r(0,)                             0.791867928608647 	(obj:0)
z_r(1,)                             0.791867928608647 	(obj:0)
z_r(2,)                             0.791867928608647 	(obj:0)
z                                   0.791867928608647 	(obj:1)
